1646121600
1646139600
1646208000
1646226000
1646294400
1646312400
1646380800
1646384400
1646388000
1646402400
1646640000
1646658000
1646812800
1646830800
1646899200
1646917200
1646985600
1646993700
1646997300
1647007200
1647244800
1647262800
1647331200
1647349200
1647417600
1647435600
1647504000
1647522000
1647590400
1647598500
1647602100
1647612000
1647849600
1647867600
1647936000
1647954000
1648022400
1648040400
1648108800
1648126800
1648195200
1648203300
1648206900
1648216800
1648450800
1648468800
1648537200
1648555200
1648623600
1648641600
1648710000
1648728000
